Route #1: 19 49 8 47 1 
Route #2: 13 12 22 4 43 32 26 
Route #3: 50 17 44 60 11 31 52 57 
Route #4: 53 54 46 5 2 6 25 
Route #5: 10 38 24 
Route #6: 28 16 48 56 21 36 29 27 40 39 
Route #7: 51 35 18 34 14 7 9 
Route #8: 55 33 42 30 45 37 15 
Route #9: 23 3 59 41 20 58 
cost 1295.64
execution_time 55.832
